Ba2 Cu1 O6 W1                           
   1.00000000000000     
     5.7285074460967547   -0.0649945662983797    0.0086560063509697
    -0.0642667214823786    5.6825640166484126    0.0279290212408671
     0.0102541763213859    0.0411309782976393    8.2658670698471433
   La   Ba   Fe   Os   O 
     2     2     2     2    12
Direct
  0.9978118798815783  0.5166331283998341  0.7551968516941152
  0.4979719709743224  0.0166370043918548  0.2552539060367217
  0.0099307068126992  0.5063573885059529  0.2525204683951340
  0.5098771657317565  0.0064340336629721  0.7525657542021108
  0.0087836344571016  0.0042737693650468  0.0033503185850106
  0.5087824558810234  0.5043312938961368  0.5033574255157185
  0.0118412691198102  0.0038731069967830  0.5037245079467567
  0.5117955806952593  0.5038582911759504  0.0037203861291513
  0.0517711582862559  0.0225840285325263  0.2648581476093420
  0.9928434550737372  0.9697158876562577  0.7438762609449252
  0.5517737353713986  0.5226104323445883  0.7648283226286311
  0.4928750652633991  0.4698050639348920  0.2438578628708890
  0.3093994512135290  0.2164540067959227  0.9983060702093525
  0.7054295266626902  0.7984983790749872  0.0386105113392312
  0.7965485109541088  0.3105126731735727  0.9943773186453005
  0.2279932236446519  0.6977026951730804  0.9849508659451848
  0.8095253733021543  0.7165155930115316  0.4982039667183133
  0.2053358015171665  0.2985179513377699  0.5386454885642976
  0.2966591302567123  0.8104838690045237  0.4943772147906483
  0.7280509049006687  0.1979014035658217  0.4850183512291927